(set-logic BV) (define-fun origCir ((n98 Bool) (n158 Bool) (n148 Bool) (n136 Bool) (n65 Bool)) Bool (and (and (and n158 (and (not n148) (not n136))) n98) n65)) (synth-fun skel ((n98 Bool) (n158 Bool) (n148 Bool) (n136 Bool) (n65 Bool)) Bool) (declare-var n98 Bool) (declare-var n158 Bool) (declare-var n148 Bool) (declare-var n136 Bool) (declare-var n65 Bool) (constraint (= (origCir n98 n158 n148 n136 n65) (skel n98 n158 n148 n136 n65))) (check-synth)
